maxlen = 8;
boredom = 8;

dance_value = [| -1,  5,  3,  2,  2
               | -1, -1,  2, -1,  1 
               |  4,  4,  0, -1,  2
               |  5,  1, -1,  2,  2
               |  0,  2,  0,  0,  0
               |  2,  0,  0,  2,  0 |];

entice_value = [|  4,  6,  5, -1,  3, -1
                |  3, -1,  3, -1,  1, -1
                |  2,  4,  5,  4, -1,  0
                |  5, -3, -2,  5, -6,  0
                |  4,  2,  1,  4, -1,  0 |];

maxlegs = [3, 3, 6, 2, 4, 20];
maxarms = [3, 3, 3, 2, 20];
maxface = [1, 2, 2, 1, 1, 20];   
